lbl,CUST NO.,READY TIME,XCOORD.,YCOORD.,DEMAND,DUE DATE,SERVICE TIME
13,55,0,26,105,40,1205,90
13,135,0,28,107,20,1206,90
13,137,0,35,102,10,1214,90
13,93,51,28,99,10,93,90
13,58,306,21,115,10,376,90
13,184,401,31,112,20,481,90
13,199,506,34,108,10,566,90
13,37,602,32,106,10,657,90
13,81,683,34,104,10,760,90
13,138,776,36,105,20,852,90
13,183,976,35,99,20,1025,90
